p td 22 66
3 1
4 2
5 1
5 4
6 4
6 1
7 2
8 4
8 1
9 2
9 1
9 5
10 9
12 7
12 9
12 10
12 2
13 8
13 9
13 12
13 10
13 3
14 10
14 9
14 2
14 3
14 5
14 8
14 12
14 4
15 2
15 13
15 3
16 10
16 12
16 2
16 8
17 16
17 2
17 11
18 1
18 5
18 12
19 15
19 14
19 7
19 10
19 6
19 3
20 12
20 16
20 4
20 17
20 18
20 5
20 13
21 5
21 7
21 11
21 1
21 2
21 15
22 12
22 19
22 18
22 3
